Crypto/instances/samples/hf_n10/hf_n10_cnf11.cnf
c Parameters to produce the formula :
c key -1 2 -3 4 5 6 7 8 9 -10 11 -12 13 14 -15 16 17 18 19 20 21 -22 -23 -24 -25 -26 -27 -28 -29 30 -31 -32
c plaintext -1 -2 -3 -4 5 6 7 -8 9 -10 -11 -12 13 14 -15 -16
c ciphertext 1 -2 -3 4 5 -6 -7 -8 9 -10 11 12 13 -14 -15 16
c 
p cnf 10 32
-7 6 -8 0
-2 4 -3 0
4 -1 3 0
-5 -8 7 0
-2 1 -3 0
2 -1 -3 4 0
-6 -7 8 0
4 1 -3 0
10 9 0
-7 6 8 0
2 3 -4 0
6 5 -7 0
-7 5 8 0
-2 -1 -3 -4 0
-10 -9 0
-7 5 -8 0
6 5 7 -8 0
2 -1 -4 0
-6 8 -5 0
-6 5 7 8 0
-2 4 -1 0
-6 -8 7 0
2 1 4 3 0
-5 6 7 8 0
2 -3 -4 0
-10 9 0
6 -8 -5 0
-7 5 -6 0
5 6 8 0
-2 4 3 0
-2 -1 3 0
-4 1 -3 0